proyfinal/src/viki/013/experimentInOfficeAgust.take6.output/803b04c6-5a09-48d0-941b-c3056c6fc4e2.als.out
Reading from standard input... Use '--help' for help.
============================[ Problem Statistics ]=============================
|                                                                             |
|  Number of variables:         87638                                         |
|  Number of clauses:          161767                                         |
|  Parse time:                   0.04 s                                       |
|                                                                             |
============================[ Search Statistics ]==============================
| Conflicts |          ORIGINAL         |          LEARNT          | Progress |
|           |    Vars  Clauses Literals |    Limit  Clauses Lit/Cl |          |
===============================================================================
|       100 |   62243   104666   261556 |    38377      100     36 | 28.977 % |
|       250 |   62217   104520   261226 |    42215      248     68 | 29.007 % |
|       475 |   62217   104520   261226 |    46436      473     76 | 29.007 % |
|       812 |   62209   104488   261138 |    51080      796    106 | 29.016 % |
|      1318 |   62189   104410   260948 |    56188     1046    106 | 29.039 % |
|      2077 |   62189   104410   260948 |    61807     1805    117 | 29.039 % |
|      3216 |   62189   104410   260948 |    67988     2944    113 | 29.039 % |
===============================================================================
restarts              : 19
conflicts             : 3655           (5677 /sec)
decisions             : 13635          (0.00 % random) (21178 /sec)
propagations          : 7103473        (11033184 /sec)
conflict literals     : 395064         (51.06 % deleted)
Memory used           : 29.88 MB
CPU time              : 0.643828 s

UNSATISFIABLE
